proyfinal/src/viki/013/andrea/andrea-localstore/experimentInOfficeAgust.take6/worker_5/8fd5c4cb-a8d0-4ebf-a80d-c467553c4200.als.cnf.out
Reading from standard input... Use '--help' for help.
============================[ Problem Statistics ]=============================
|                                                                             |
|  Number of variables:         87638                                         |
|  Number of clauses:          161767                                         |
|  Parse time:                   0.04 s                                       |
|                                                                             |
============================[ Search Statistics ]==============================
| Conflicts |          ORIGINAL         |          LEARNT          | Progress |
|           |    Vars  Clauses Literals |    Limit  Clauses Lit/Cl |          |
===============================================================================
|       100 |   65194   115414   287881 |    42318      100     15 | 25.610 % |
|       250 |   58982    96224   240581 |    46550      247     33 | 32.698 % |
|       475 |   58982    96216   240558 |    51205      471     40 | 32.698 % |
|       812 |   58907    95927   239891 |    56325      742     55 | 32.784 % |
|      1318 |   58778    95430   238722 |    61958     1243     56 | 32.931 % |
|      2077 |   58691    95135   237997 |    68154     2000     56 | 33.030 % |
|      3216 |   58691    95135   237997 |    74969     3139    103 | 33.030 % |
|      4924 |   56266    90567   227005 |    82466     4159     97 | 35.797 % |
|      7486 |   56244    86772   216909 |    90713     6035     79 | 35.822 % |
|     11330 |   56160    86527   216352 |    99784     9869     74 | 35.918 % |
|     17096 |   55559    83938   210293 |   109763    14032     78 | 36.604 % |
===============================================================================
restarts              : 70
conflicts             : 20465          (8460 /sec)
decisions             : 83020          (0.00 % random) (34319 /sec)
propagations          : 26164952       (10816214 /sec)
conflict literals     : 1504096        (42.12 % deleted)
Memory used           : 43.52 MB
CPU time              : 2.41905 s

INDETERMINATE
